NAME: Withanone; PlaSMA ID-2558
PRECURSORMZ: 471.27412
PRECURSORTYPE: [M+H]+
FORMULA: C28H38O6
Ontology: Withanolides and derivatives
INCHIKEY: FAZIYUIDUNHZRG-UHFFFAOYNA-N
SMILES: CC(C1CC(C)=C(C)C(=O)O1)C1(O)CCC2C3C4OC4C4(O)CC=CC(=O)C4(C)C3CCC12C
RETENTIONTIME: 6.82
CCS: 220.9656493
IONMODE: Positive
COLLISIONENERGY: 
Comment: Annotation level-1; PlaSMA ID-2558; ID title-Withanone; Max plant tissue-Standard only
Num Peaks: 10
68.06053	24
153.09654	20
171.07501	20
181.09505	21
220.09355	22
263.13885	18
283.15988	31
417.25351	27
435.2543	24
471.27539	57

NAME: Corosolic acid; PlaSMA ID-2570
PRECURSORMZ: 473.36254
PRECURSORTYPE: [M+H]+
FORMULA: C30H48O4
Ontology: Triterpenoids
INCHIKEY: HFGSQOYIOKBQOW-UHFFFAOYNA-N
SMILES: CC1CCC2(CCC3(C)C(=CCC4C5(C)CC(O)C(O)C(C)(C)C5CCC34C)C2C1C)C(O)=O
RETENTIONTIME: 9.89
CCS: 223.1106231
IONMODE: Positive
COLLISIONENERGY: 
Comment: Annotation level-1; PlaSMA ID-2570; ID title-Corosolic acid; Max plant tissue-Standard only
Num Peaks: 74
109.08733	30
121.0966	59
121.10341	27
123.11742	37
135.11803	65
145.0999	42
147.11229	44
149.12842	45
149.17274	17
159.11057	24
159.11604	18
163.11037	25
163.121	31
163.14987	37
164.11726	21
173.12769	24
175.13152	17
175.14751	19
175.15778	18
177.16833	22
179.15005	20
187.14374	42
188.16075	18
189.14455	24
189.16357	319
190.16736	24
203.1581	20
203.17538	37
203.18948	27
204.1898	23
205.16061	403
205.1963	78
205.24748	22
206.16309	41
206.1933	18
207.17136	77
210.43964	27
214.16658	17
215.17697	36
221.1918	20
223.15833	18
235.16354	48
241.20367	26
245.19838	19
249.18239	21
249.19588	39
285.26138	17
295.24545	55
313.23444	20
313.25516	18
391.3255	18
408.75885	17
409.35251	327
410.34262	62
410.37625	47
427.35739	65
427.37686	17
428.35693	69
437.30423	21
437.32928	46
437.34772	64
437.37619	20
438.35327	91
439.34619	22
439.36374	19
455.3334	21
455.3522	112
455.36343	52
456.34946	107
457.35306	17
472.35297	21
473.34711	55
473.36707	200
473.3905	37

NAME: Maslinic acid; PlaSMA ID-2571
PRECURSORMZ: 473.36254
PRECURSORTYPE: [M+H]+
FORMULA: C30H48O4
Ontology: Triterpenoids
INCHIKEY: MDZKJHQSJHYOHJ-UHFFFAOYNA-N
SMILES: CC1(C)CCC2(CCC3(C)C(=CCC4C5(C)CC(O)C(O)C(C)(C)C5CCC34C)C2C1)C(O)=O
RETENTIONTIME: 9.77
CCS: 218.152878
IONMODE: Positive
COLLISIONENERGY: 
Comment: Annotation level-1; PlaSMA ID-2571; ID title-Maslinic acid; Max plant tissue-Standard only
Num Peaks: 70
71.06963	24
107.08249	20
121.10465	27
123.10526	24
133.10515	47
135.1165	20
137.13234	17
147.11588	23
147.12146	18
149.12863	18
161.13533	61
163.14793	44
164.15503	24
173.12798	19
175.13443	23
175.14763	20
177.16472	45
178.15854	27
185.13341	20
187.14854	40
189.1628	32
189.1687	66
191.18356	37
192.19316	20
193.16087	36
201.16898	18
203.16878	28
203.179	82
203.19046	32
204.18051	24
204.1913	22
205.1539	19
205.16736	37
205.19719	36
206.15448	20
207.17291	61
207.18587	37
208.18057	41
216.17879	21
222.19405	23
231.17532	28
233.19249	21
247.16046	17
267.17273	20
324.28058	24
349.28433	25
375.46722	22
381.34262	22
391.33182	21
392.33908	57
409.33063	59
409.34772	311
409.35947	88
410.34534	53
410.36133	93
410.37891	17
411.32861	19
411.36859	49
412.34894	29
427.36331	38
437.32886	117
437.35199	44
438.34506	18
439.32047	18
439.35138	20
439.36945	22
455.33713	36
455.36435	45
473.34592	100
473.36807	192

NAME: Soyasapogenol A; PlaSMA ID-2579
PRECURSORMZ: 475.37819
PRECURSORTYPE: [M+H]+
FORMULA: C30H50O4
Ontology: Triterpenoids
INCHIKEY: CDDWAYFUFNQLRZ-UHFFFAOYNA-N
SMILES: CC1(C)CC2C3=CCC4C5(C)CCC(O)C(C)(CO)C5CCC4(C)C3(C)CCC2(C)C(O)C1O
RETENTIONTIME: 8.94
CCS: 219.2367595
IONMODE: Positive
COLLISIONENERGY: 
Comment: Annotation level-1; PlaSMA ID-2579; ID title-Soyasapogenol A; Max plant tissue-Standard only
Num Peaks: 20
123.08025	22
151.10565	19
188.14404	17
223.16701	22
228.18935	16
241.19829	16
245.18082	24
245.2159	20
351.25888	16
381.30728	16
398.30753	24
439.35776	25
439.37079	17
440.35336	21
440.36847	38
457.35892	50
457.37723	38
457.39117	17
458.36426	18
459.37164	20
