BEGIN IONS
PEPMASS=981.54
CHARGE=0
MSLEVEL=2
SOURCE_INSTRUMENT=LC-ESI-qTof
FILENAME=130618_Ger_Jenia_WT-3-Des-MCLR_MH981.4-qb.1.1..mgf
SEQ=*..*
IONMODE=Positive
ORGANISM=GNPS-LIBRARY
NAME=3-Des-Microcystein_LR M+H
PI=Gerwick
DATACOLLECTOR=Jenia
SMILES=CC(C)CC1NC(=O)C(C)NC(=O)C(=C)N(C)C(=O)CCC(NC(=O)C(C)C(NC(=O)C(CCCNC(N)=N)NC(=O)C(C)C(NC1=O)C(O)=O)\C=C\C(\C)=C\C(C)C(O)Cc1ccccc1)C(O)=O
INCHI=N/A
INCHIAUX=N/A
PUBMED=N/A
SUBMITUSER=mwang87
LIBRARYQUALITY=1
SPECTRUMID=CCMSLIB00000001547
SCANS=1
289.286377	8068.0
295.545288	22507.0
298.489624	3925.0
317.324951	18742.0
319.655945	8604.0
324.482422	8041.0
325.316284	9738.0
339.789429	16145.0
343.947021	18094.0
347.020508	13981.0
347.913391	6765.0
361.147705	11763.0
361.84436	24296.0
364.232727	2346.0
364.858154	10782.0
365.845886	10242.0
368.22168	12761.0
368.965698	19147.0
375.069519	15644.0
375.751953	25393.0
382.750549	12765.0
384.197083	17912.0
390.574219	7993.0
394.049194	16135.0
397.106262	13986.0
404.420715	12326.0
411.092712	2348.0
413.784546	8715.0
427.667358	68137.0
436.192749	14879.0
443.266113	44427.0
446.267273	23472.0
447.747498	29292.0
455.25	70939.0
456.107544	105392.0
456.822144	3.0
457.543213	12862.0
464.285461	8617.0
469.872314	87594.0
471.062195	31482.0
475.257324	15449.0
476.143616	23143.0
476.975159	28430.0
478.891113	27890.0
479.975952	33235.0
483.242432	13564.0
487.210388	32885.0
488.160156	20786.0
491.191956	55073.0
494.279602	7435.0
495.653992	32208.0
498.412964	11684.0
503.028198	30643.0
503.699951	2.0
504.344543	36421.0
505.154541	9667.0
510.176514	38891.0
512.168701	10175.0
513.265381	16524.0
514.957397	11384.0
515.922852	78764.0
520.973389	28857.0
521.82373	5810.0
523.168945	58926.0
529.036865	20722.0
530.991211	31845.0
532.376709	3005.0
534.575195	12906.0
538.003174	220949.0
539.217773	272296.0
540.672852	43876.0
548.061401	13655.0
554.117432	76225.0
556.030396	214421.0
557.288818	52970.0
557.996094	6202.0
559.942261	18112.0
561.328735	14656.0
564.123047	25971.0
564.94873	34630.0
566.439941	35564.0
571.33374	61305.0
572.047363	17235.0
575.219238	42127.0
575.888916	6.0
577.102905	29550.0
579.645874	7151.0
580.942627	17609.0
582.110107	102075.0
583.458984	10113.0
585.237061	36774.0
598.172485	26085.0
599.352783	764523.0
600.382812	114267.0
601.06665	4.0
602.267578	27144.0
609.302002	10247.0
613.415771	8621.0
622.208984	23787.0
623.023193	63940.0
623.991455	19154.0
625.216187	23050.0
638.299561	12481.0
640.265625	17392.0
641.235107	65873.0
646.095947	8409.0
649.2771	5446.0
651.526611	17521.0
657.128906	12911.0
658.094971	14824.0
659.420898	41969.0
663.387695	18284.0
668.33252	65700.0
669.357178	5671.0
680.219727	44374.0
681.987793	24446.0
685.957764	19166.0
691.648682	29177.0
693.22583	33545.0
694.307861	22539.0
696.332397	121211.0
697.127808	9503.0
709.464478	20171.0
710.79541	22346.0
711.744873	32675.0
714.071777	50487.0
715.578979	54567.0
716.216553	8.0
723.267822	14415.0
724.081909	88510.0
725.488892	8470.0
728.352051	21518.0
735.806396	52022.0
738.34668	2697.0
744.365234	16205.0
747.456055	19268.0
753.27124	14114.0
761.609131	12373.0
764.462158	19876.0
765.280029	18361.0
769.275635	41999.0
770.328613	16548.0
771.386353	13776.0
787.432617	33003.0
796.139526	9637.0
797.232788	11322.0
806.556885	18639.0
808.442383	6355.0
811.637329	14687.0
812.300049	9904.0
813.149292	15959.0
817.219238	7640.0
820.274048	6246.0
821.288208	15591.0
823.361328	13693.0
824.618286	6895.0
828.517456	32132.0
830.409302	102583.0
831.306763	65294.0
832.105469	9727.0
833.18457	4115.0
835.212891	7606.0
836.078247	8740.0
838.518677	26160.0
839.455811	72006.0
845.612915	21577.0
847.433594	196462.0
848.125854	39637.0
851.380859	246170.0
852.370605	276882.0
853.270508	44216.0
865.5979	44697.0
866.295654	111012.0
867.19043	4120.0
868.372192	78023.0
869.331177	8584.0
871.557007	5374.0
877.137451	30131.0
880.216553	5692.0
883.442261	49241.0
884.216553	8.0
888.167114	41037.0
889.282959	24795.0
892.127808	14925.0
893.467896	23506.0
895.607422	13123.0
899.010132	28633.0
901.351196	13472.0
902.325562	3774.0
909.424438	244136.0
910.515381	43770.0
911.526367	15208.0
914.30896	6532.0
915.217773	28455.0
918.666138	5610.0
919.39624	85829.0
920.06665	3.0
921.123901	16163.0
922.205688	37863.0
925.063721	43395.0
931.132812	61732.0
932.351929	136657.0
933.524048	25202.0
935.493286	33896.0
936.552002	103130.0
937.588623	67605.0
938.471069	35379.0
939.61792	77289.0
946.257812	38584.0
949.370239	85420.0
950.284546	5976.0
951.551758	29995.0
953.396606	545281.0
954.491577	123937.0
963.686768	261578.0
964.524658	318164.0
965.192139	124405.0
982.221924	27147.0
END IONS


BEGIN IONS
PEPMASS=940.25
CHARGE=0
MSLEVEL=2
SOURCE_INSTRUMENT=LC-ESI-qTof
FILENAME=20111105_Anada_Ger_HoiamideB_MH940_qb.1.1..mgf
SEQ=*..*
IONMODE=Positive
ORGANISM=GNPS-LIBRARY
NAME=Hoiamide B M+H
PI=Gerwick
DATACOLLECTOR=Amanda
SMILES=CCC[C@@H](C)[C@@H]([C@H](C)[C@@H]1[C@H]([C@H](Cc2nc(cs2)C3=N[C@](CS3)(C4=N[C@](CS4)(C(=O)N[C@H]([C@H]([C@H](C(=O)O[C@H](C(=O)N[C@H](C(=O)O1)[C@@H](C)O)[C@@H](C)CC)C)O)[C@@H](C)CC)C)C)OC)C)O
INCHI=InChI=1S/C45H73N5O10S3/c1-14-17-24(6)34(52)26(8)37-25(7)30(58-13)18-31-46-29(19-61-31)39-49-45(12,21-62-39)43-50-44(11,20-63-43)42(57)48-32(22(4)15-2)35(53)27(9)40(55)59-36(23(5)16-3)38(54)47-33(28(10)51)41(56)60-37/h19,22-28,30,32-37,51-53H,14-18,20-21H2,1-13H3,(H,47,54)(H,48,57)/t22-,23-,24+,25-,26-,27+,28+,30-,32-,33-,34-,35-,36-,37-,44+,45+/m0/s1
INCHIAUX=N/A
PUBMED=N/A
SUBMITUSER=mwang87
LIBRARYQUALITY=1
SPECTRUMID=CCMSLIB00000001548
SCANS=1
278.049927	35793.0
278.957642	47593.0
281.258667	95495.0
291.996094	115278.0
293.827637	91752.0
299.065979	129040.0
309.152832	62974.0
324.236206	31157.0
334.968811	115627.0
341.283569	30547.0
343.978516	94124.0
353.147217	205611.0
353.84436	1.0
359.101166	581387.0
359.888855	18.0
368.931641	40369.0
375.024811	191523.0
375.664062	39.0
377.287628	934209.0
378.192047	295658.0
380.225586	99848.0
381.088074	28994.0
383.194763	126064.0
384.326294	119935.0
390.16333	132876.0
391.216492	152650.0
397.480957	49394.0
405.885986	15096.0
408.151367	50942.0
408.941162	1521917.0
410.069397	235028.0
412.908936	19523.0
415.317749	40832.0
416.189331	116396.0
421.346222	822444.0
422.236237	406319.0
425.736572	33271.0
430.427429	115251.0
431.030762	152986.0
436.663208	30867.0
453.213257	215667.0
453.853271	2.0
456.716797	125621.0
457.249573	718325.0
458.258514	121013.0
459.323029	42422.0
462.352295	53209.0
468.064392	56113.0
471.292297	101158.0
472.837769	17471.0
475.22522	1066899.0
476.323944	931888.0
477.293152	314415.0
481.310425	20995.0
486.095825	35999.0
488.752777	97793.0
490.151245	189397.0
491.134399	38134.0
492.823486	167781.0
493.837646	123040.0
499.340332	68929.0
500.92627	35192.0
502.819702	346672.0
503.328186	1789291.0
503.844055	115544.0
504.448425	209601.0
505.521667	210506.0
506.153992	23586.0
507.28186	1756109.0
508.139343	920658.0
508.715088	5.0
509.322998	67825.0
510.159729	125144.0
511.108826	44963.0
513.214233	63849.0
514.097351	157893.0
515.079712	76460.0
518.323853	32014.0
519.041016	240930.0
521.166443	2474045.0
522.086304	485376.0
522.963379	290176.0
529.374146	106411.0
530.899231	722904.0
532.089783	189952.0
532.834473	71377.0
534.093506	79577.0
535.231201	533187.0
536.079834	205958.0
536.935913	19616.0
537.806885	427771.0
538.545166	14.0
539.760132	185155.0
543.283936	115082.0
545.483398	53069.0
553.24353	10619710.0
554.189453	1265687.0
555.107849	885736.0
556.199341	35655.0
557.188904	144709.0
558.325073	276628.0
559.441162	38371.0
563.392944	369187.0
564.342773	53377.0
565.162598	153259.0
567.527832	90530.0
569.09668	13406.0
573.235718	244664.0
573.872803	48.0
575.213562	846336.0
576.479736	79230.0
582.099854	85856.0
583.982666	34163.0
584.817871	17642.0
585.449829	126403.0
587.480713	30454.0
589.125	202774.0
589.857056	3.0
591.335327	324628.0
593.54541	59873.0
599.153564	39495.0
601.312927	773465.0
602.344727	103997.0
605.229919	390697.0
606.044434	1.0
607.083252	438106.0
607.802979	32.0
611.162537	126605.0
613.219177	1278729.0
614.208252	134599.0
614.943481	32793.0
616.26123	35333.0
617.239929	1181920.0
617.832764	3566.0
619.109741	611095.0
620.09021	215720.0
623.606201	32893.0
625.371094	162473.0
629.113037	397263.0
631.285767	837261.0
632.427246	426749.0
633.305969	773961.0
634.005371	139725.0
635.159546	104212.0
638.429932	50215.0
639.142578	211014.0
644.970947	126358.0
645.833496	400437.0
646.540649	13.0
647.614746	28622.0
649.493652	92063.0
651.267822	2952105.0
652.501709	948097.0
653.303345	261489.0
655.203003	33201.0
656.197632	63099.0
657.307983	3027254.0
658.356934	577368.0
659.635254	85949.0
661.488525	480492.0
662.373413	76094.0
663.271667	5528330.0
664.294983	1893201.0
665.272827	48.0
671.457947	584357.0
672.555908	35863.0
675.252808	3062771.0
676.276123	1149021.0
677.002197	57.0
679.320496	347430.0
688.130615	336462.0
689.338928	5507539.0
690.380371	939865.0
691.865601	127803.0
693.103333	441499.0
694.241089	177434.0
694.866699	3.0
706.645874	764079.0
707.298584	11425631.0
708.41217	3282238.0
709.281738	37425.0
710.297302	104548.0
711.575684	59794.0
714.353027	293763.0
720.310608	463766.0
723.610229	67559.0
724.423279	333180.0
725.338684	2697145.0
726.246155	477936.0
727.232544	407357.0
727.836182	23.0
731.005493	58569.0
733.947266	42640.0
734.489502	322546.0
735.21875	30.0
736.155151	161121.0
738.186523	1302348.0
738.97168	187994.0
739.817383	181407.0
740.513184	61.0
743.460449	177286.0
744.158691	26051.0
746.365784	668916.0
746.917114	45488.0
749.86853	33868.0
752.247192	1273569.0
753.092773	124216.0
753.863403	42270.0
754.550781	53958.0
756.299866	83498.0
758.105103	72039.0
760.394287	285768.0
761.139648	92506.0
762.440063	487254.0
763.821289	118871.0
764.401733	78746.0
765.879333	244224.0
766.875977	103968.0
768.550537	359217.0
769.536011	71507.0
770.24707	6843020.0
771.345947	1834188.0
772.112915	291081.0
772.859253	98762.0
773.393433	15544.0
774.196289	89552.0
775.369934	162814.0
776.830322	39987.0
778.437683	568287.0
779.430786	387544.0
780.564697	96591.0
782.339478	146674.0
786.388916	33301.0
788.550964	179046.0
789.33606	752627.0
790.289795	2323301.0
791.421265	491574.0
792.208252	468317.0
792.876465	10.0
793.950195	158696.0
795.489502	38698.0
796.091187	954908.0
797.200439	337367.0
798.289185	46495.0
800.432495	111840.0
801.090576	18.0
802.506714	113841.0
803.42688	382726.0
804.150146	305130.0
805.09314	72883.0
805.733887	25871.0
806.318115	161990.0
807.514771	70266.0
808.27356	21070504.0
809.333984	4046391.0
810.207275	259344.0
811.469727	27873.0
812.310425	187082.0
813.238647	70162.0
814.210083	462427.0
814.969604	5.0
818.325684	249639.0
819.179932	5.0
821.257446	2401369.0
822.402405	1322524.0
823.065796	26639.0
826.38385	1256031.0
827.219849	5.0
828.190063	2491409.0
829.269775	415142.0
832.262146	456122.0
833.509155	211714.0
834.274414	8.0
836.505859	107931.0
837.125854	4.0
837.99231	18698.0
839.326721	2462282.0
840.278259	8756806.0
841.229004	1659474.0
842.093811	260534.0
843.241211	234347.0
844.313904	2187139.0
845.152466	83303.0
846.27002	2781280.0
847.444214	1204369.0
848.088745	3.0
850.265015	922613.0
851.186401	116222.0
854.273743	1016497.0
855.291382	102364.0
858.455566	702571.0
860.296204	2520372.0
861.256592	530700.0
862.471863	1859168.0
863.435181	549532.0
864.379272	443001.0
865.002441	70558.0
866.333496	12614.0
868.264954	134340.0
871.557007	123565.0
872.289917	18706856.0
873.345642	2718281.0
874.043213	315833.0
876.373779	5434008.0
876.880249	19.0
877.403809	1670336.0
878.322937	10828502.0
879.327148	2115364.0
880.158447	114122.0
886.277527	2620326.0
887.16687	545701.0
887.893188	5.0
890.246277	55866120.0
891.272888	13506386.0
892.020142	75.0
893.624634	44855.0
894.326416	18938176.0
895.376404	5114120.0
896.202576	979881.0
897.012695	226445.0
904.195679	46132128.0
905.224548	12148538.0
906.084473	13.0
906.811646	12834.0
908.183472	17888056.0
909.235107	4328052.0
910.25885	56715.0
912.229492	168909.0
913.382202	64191.0
921.45813	892847.0
922.178101	109387080.0
923.155762	23455760.0
924.007812	68.0
940.099915	1264261.0
940.88324	2.0
END IONS


BEGIN IONS
PEPMASS=456.1
CHARGE=0
MSLEVEL=2
SOURCE_INSTRUMENT=LC-ESI-qTof
FILENAME=20111105_Jenia_Ger_MalyngamideC_MH_456_qb.1.1..mgf
SEQ=*..*
IONMODE=Positive
ORGANISM=GNPS-LIBRARY
NAME=Malyngamide C M+H
PI=Gerwick
DATACOLLECTOR=Amanda
SMILES=CCCCCCC[C@@H](C/C=C/CCC(=O)NC/C(=C/Cl)/[C@@]12[C@@H](O1)[C@H](CCC2=O)O)OC
INCHI=InChI=1S/C24H38ClNO5/c1-3-4-5-6-8-11-19(30-2)12-9-7-10-13-22(29)26-17-18(16-25)24-21(28)15-14-20(27)23(24)31-24/h7,9,16,19-20,23,27H,3-6,8,10-15,17H2,1-2H3,(H,26,29)/b9-7+,18-16-/t19-,20-,23-,24+/m0/s1
INCHIAUX=N/A
PUBMED=N/A
SUBMITUSER=mwang87
LIBRARYQUALITY=1
SPECTRUMID=CCMSLIB00000001549
SCANS=1
128.838745	8064.0
132.075684	8080.0
132.830322	18139.0
134.038437	11099.0
135.861877	4449.0
136.808807	25689.0
138.058044	10764.0
138.973206	4246.0
139.9487	1724.0
144.946014	7320.0
145.902298	49972.0
146.937012	51801.0
148.894623	28649.0
149.97699	1863.0
153.859802	7103.0
154.713699	36921.0
155.846817	2060.0
156.714844	6284.0
158.752625	1735.0
160.830704	16155.0
163.185608	533.0
163.910172	252195.0
164.623047	32682.0
165.733948	3395.0
166.981857	13151.0
171.847717	104840.0
172.495239	1.0
173.275482	12953.0
173.914734	5425.0
174.843506	1678.0
179.897583	20765.0
181.835129	183621.0
182.753876	156636.0
183.335068	12.0
183.913422	5378.0
185.065643	3780.0
186.137329	811.0
189.110214	39074.0
197.980545	6792.0
199.184845	10571.0
199.844528	624963.0
200.777771	142047.0
201.483322	1.0
203.099976	3409.0
205.09613	13589.0
205.86319	3181.0
206.984756	46408.0
208.040466	3242.0
208.964996	22175.0
210.259705	710.0
212.964813	16141.0
214.151306	13266.0
215.761108	11654.0
216.936066	1618.0
217.831894	937927.0
218.579987	3.0
221.636169	2399.0
222.598358	9334.0
223.988632	80101.0
224.586639	1.0
229.886719	10375.0
234.017761	27179.0
236.033844	38385.0
237.818314	31662.0
238.861313	28934.0
239.690002	11188.0
240.222229	1.0
241.927307	30061.0
242.991882	2003.0
243.90564	10750.0
247.445831	15595.0
251.955292	27835.0
254.062531	4240.0
254.630402	1254.0
255.87674	2013.0
258.053741	23367.0
259.056335	17488.0
260.177734	7311.0
260.765381	7718.0
262.098389	21095.0
263.673523	10252.0
264.552368	37683.0
268.199219	16811.0
269.090881	5872.0
271.308411	435.0
272.420837	1091.0
272.947662	29580.0
274.890625	3256.0
275.762695	12200.0
277.944397	3182.0
281.043823	1494.0
282.318359	5854.0
283.845001	23247.0
284.954407	2428.0
285.89978	2482.0
287.046417	24986.0
288.275391	4782.0
289.689941	17680.0
290.959991	6664.0
292.850342	11947.0
295.933075	17736.0
297.365479	10209.0
297.999786	9928.0
299.985352	2090.0
307.71936	52460.0
309.054688	13865.0
310.058533	3309.0
310.919434	12360.0
312.388794	2471.0
313.061646	5753.0
313.898224	654448.0
314.618134	1.0
316.06897	2603.0
321.953339	36012.0
323.073242	30548.0
323.795776	461.0
324.946899	24349.0
325.870728	1667.0
328.325989	1378.0
334.002808	33185.0
335.118286	3659.0
339.90567	14517.0
341.105286	572.0
342.098663	28518.0
342.997925	1492.0
345.584991	5009.0
350.237061	1429.0
352.251495	70368.0
353.108459	16312.0
357.992676	5510.0
360.06662	6277.0
361.583008	13914.0
362.816467	8611.0
367.725464	1254.0
370.019318	577662.0
370.866577	7.0
372.178589	6989.0
378.005493	445431.0
378.671936	4.0
380.209106	22266.0
387.997772	262881.0
388.711029	3.0
395.914978	858.0
401.854828	51090.0
406.004456	627822.0
406.774811	11.0
409.659729	1702.0
419.272339	10655.0
420.101593	70422.0
423.253418	295910.0
423.916626	32604272.0
424.812042	25.0
426.196167	18399.0
437.281433	18805.0
438.103607	28144.0
439.510559	1335.0
455.885986	4412.0
END IONS


BEGIN IONS
PEPMASS=545.0
CHARGE=0
MSLEVEL=2
SOURCE_INSTRUMENT=LC-ESI-Ion Trap
FILENAME=20111105_Jenia_Ger_Scytonemin_MH_545_qb.1.1..mgf
SEQ=*..*
IONMODE=Positive
ORGANISM=GNPS-LIBRARY
NAME=Scytonemin M+H
PI=Gerwick
DATACOLLECTOR=Amanda
SMILES=OC1=CC=C(\C=C2\C(=O)C(C3=C4C5=C(C=CC=C5)N=C4\C(=C/C4=CC=C(O)C=C4)C3=O)=C3C4=C(C=CC=C4)N=C23)C=C1
INCHI=InChI=1S/C36H20N2O4/c39-21-13-9-19(10-14-21)17-25-33-29(23-5-1-3-7-27(23)37-33)31(35(25)41)32-30-24-6-2-4-8-28(24)38-34(30)26(36(32)42)18-20-11-15-22(40)16-12-20/h1-18,39-40H/b25-17+,26-18+
INCHIAUX=CGZKSPLDUIRCIO-RPCRKUJJSA-N
PUBMED=N/A
SUBMITUSER=mwang87
LIBRARYQUALITY=1
SPECTRUMID=CCMSLIB00000001550
SCANS=1
343.896484	142503.0
345.458496	67939.0
372.684021	175247.0
386.097473	65864.0
395.15564	104575.0
399.223022	60954.0
406.367249	31184.0
408.018677	100834.0
411.038452	32080.0
412.037964	57989.0
425.144653	113047.0
428.946472	18204.0
439.259216	94641.0
451.303467	109804.0
453.173279	83206.0
471.290649	97971.0
473.082581	77358.0
474.340637	39583.0
484.037598	69735.0
488.428955	406750.0
489.287537	7417608.0
490.31311	4128547.0
491.288513	3.0
498.630005	112346.0
499.849731	163597.0
500.469604	33473.0
501.284241	87997.0
502.14502	106179.0
504.172668	27900.0
516.481567	1003328.0
517.132935	12979350.0
518.111328	7024024.0
518.976562	67.0
528.132935	9615938.0
529.155762	4285929.0
530.238403	96747.0
544.155518	4675899.0
545.082642	43057184.0
546.063965	11037290.0
546.972168	9.0
END IONS
